72 1452
65 26 20 22 2 30 17 29 18 44 36 58 31 12 14 38 16 24 39 8 27 25 54 7 21 15 56 57 71 40 69 46
32 67 9 53 51 10 11 60 47 70 55 64 66 62 35 50 1 45 63 37 68 28 59 6 49 61 4 34 13 43 33 42 3
41 23 5 19 52 48 0
